data/benchmarks/bayes/75-14-2-q.cnf
p cnf 924 887
c weights 0.0159006 0.9840994 1 1 1 1 1 1 1 1 1 1 1 1 1 1 1 1 1 1 1 1 1 1 1 1 1 1 1 1 1 1 1 1 1 1 1 1 1 1 1 1 1 1 1 1 1 1 1 1 1 1 1 1 1 1 1 1 1 1 1 1 1 1 1 1 1 1 1 1 1 1 1 1 1 1 1 1 1 1 1 1 1 1 1 1 1 1 1 1 1 1 1 1 1 1 1 1 1 1 1 1 1 1 1 1 1 1 1 1 1 1 1 1 1 1 1 1 1 1 1 1 1 1 1 1 1 1 1 1 1 1 1 1 1 1 1 1 1 1 1 1 1 1 1 1 1 1 1 1 1 1 1 1 1 1 1 1 1 1 1 1 1 1 1 1 1 1 1 1 1 1 1 1 1 1 1 1 1 1 1 1 1 1 1 1 1 1 1 1 1 1 1 1 1 1 1 1 1 1 1 1 1 1 1 1 1 1 1 1 1 1 1 1 1 1 1 1 1 1 1 1 1 1 1 1 1 1 1 1 1 1 1 1 1 1 1 1 1 1 1 1 1 1 1 1 1 1 1 1 1 1 1 1 1 1 1 1 1 1 1 1 1 1 1 1 1 1 1 1 1 1 1 1 1 1 1 1 1 1 1 1 1 1 1 1 1 1 1 1 1 1 1 1 1 1 1 1 1 1 1 1 1 1 1 1 1 1 1 1 1 1 1 1 1 1 1 1 1 1 1 1 1 1 1 1 1 1 1 1 1 1 1 1 1 1 1 1 1 1 1 1 1 1 1 1 1 1 1 1 1 1 1 1 1 1 1 1 1 1 1 1 1 1 1 1 1 1 1 1 1 1 1 1 1 1 1 1 1 1 1 1 1 1 1 1 1 1 1 1 1 1 0.5 0.5 0.5 0.5 0.5 0.5 0.5 0.5 0.150397 0.849603 0.896111 0.10388900000000001 0.5 0.5 0.5 0.5 0.5 0.5 0.5 0.5 0.5 0.5 0.5 0.5 0.5 0.5 0.5 0.5 0.5 0.5 0.5 0.5 0.5 0.5 0.5 0.5 0.5 0.5 0.5 0.5 0.5 0.5 0.5 0.5 0.5 0.5 0.5 0.5 0.5 0.5 0.5 0.5 0.5 0.5 0.5 0.5 0.5 0.5 0.5 0.5 0.5 0.5 0.5 0.5 0.5 0.5 0.5 0.5 0.5 0.5 0.5 0.5 0.600686 0.39931399999999995 0.996609 0.003391000000000033 0.203224 0.796776 0.38912 0.61088 0.5 0.5 0.5 0.5 0.5 0.5 0.5 0.5 0.5 0.5 0.5 0.5 0.5 0.5 0.5 0.5 0.5 0.5 0.5 0.5 0.5 0.5 0.5 0.5 0.5 0.5 0.5 0.5 0.5 0.5 0.5 0.5 0.5 0.5 0.5 0.5 0.5 0.5 0.5 0.5 0.5 0.5 0.5 0.5 0.5 0.5 0.5 0.5 0.5 0.5 0.5 0.5 0.5 0.5 0.5 0.5 0.5 0.5 0.5 0.5 0.5 0.5 0.5 0.5 0.5 0.5 0.5 0.5 0.5 0.5 0.5 0.5 0.5 0.5 0.5 0.5 0.5 0.5 0.5 0.5 0.5 0.5 0.5 0.5 0.5 0.5 0.5 0.5 0.5 0.5 0.5 0.5 0.5 0.5 0.5 0.5 0.5 0.5 0.5 0.5 0.5 0.5 0.5 0.5 0.5 0.5 0.5 0.5 0.5 0.5 0.5 0.5 0.5 0.5 0.5 0.5 0.5 0.5 0.5 0.5 0.5 0.5 0.5 0.5 0.497509 0.502491 0.356388 0.6436120000000001 0.584519 0.415481 0.211744 0.7882560000000001 0.5 0.5 0.5 0.5 0.5 0.5 0.5 0.5 0.5 0.5 0.5 0.5 0.5 0.5 0.5 0.5 0.842828 0.15717199999999998 0.576592 0.423408 0.349064 0.650936 0.995436 0.0045640000000000125 0.5 0.5 0.5 0.5 0.5 0.5 0.5 0.5 0.5 0.5 0.5 0.5 0.5 0.5 0.5 0.5 0.5 0.5 0.5 0.5 0.5 0.5 0.5 0.5 0.879482 0.12051800000000001 0.268921 0.731079 0.431659 0.568341 0.746209 0.253791 0.5 0.5 0.5 0.5 0.183491 0.816509 0.176408 0.823592 0.437229 0.562771 0.00156246 0.99843754 0.5 0.5 0.5 0.5 0.5 0.5 0.5 0.5 0.338828 0.661172 0.14971 0.85029 0.586881 0.413119 0.0159591 0.9840409 0.5 0.5 0.5 0.5 0.5 0.5 0.5 0.5 0.342714 0.657286 0.445443 0.554557 0.613054 0.386946 0.222196 0.7778039999999999 0.5 0.5 0.5 0.5 0.5 0.5 0.5 0.5 0.581501 0.41849899999999995 0.00518988 0.99481012 0.342422 0.657578 0.583063 0.416937 0.5 0.5 0.5 0.5 0.5 0.5 0.5 0.5 0.5 0.5 0.5 0.5 0.5 0.5 0.5 0.5 0.0720123 0.9279877 0.558295 0.441705 0.0717153 0.9282847 0.726199 0.27380099999999996 0.5 0.5 0.5 0.5 0.5 0.5 0.5 0.5 0.5 0.5 0.5 0.5 0.5 0.5 0.5 0.5 0.5 0.5 0.5 0.5 0.5 0.5 0.5 0.5 0.5 0.5 0.5 0.5 0.668972 0.331028 0.40067 0.5993299999999999 0.43423 0.56577 0.269228 0.730772 0.5 0.5 0.5 0.5 0.5 0.5 0.5 0.5 0.5 0.5 0.5 0.5 0.5 0.5 0.5 0.5 0.5 0.5 0.5 0.5 0.5 0.5 0.5 0.5 0.5 0.5 0.5 0.5 0.5 0.5 0.5 0.5 0.5 0.5 0.5 0.5 0.5 0.5 0.5 0.5 0.5 0.5 0.5 0.5 0.5 0.5 0.5 0.5 0.5 0.5 0.5 0.5 0.5 0.5 0.5 0.5 0.5 0.5 0.5 0.5 0.5 0.5 0.5 0.5 0.5 0.5 0.5 0.5 0.5 0.5 0.5 0.5 0.5 0.5 0.5 0.5 0.5 0.5 0.5 0.5 0.462614 0.5373859999999999 0.799471 0.20052899999999996 0.638951 0.36104899999999995 0.571393 0.42860699999999996 0.5 0.5 0.5 0.5 0.5 0.5 0.5 0.5 0.889456 0.11054399999999998 0.301028 0.6989719999999999 0.5 0.5 0.5 0.5 0.5 0.5 0.5 0.5 0.5 0.5 0.5 0.5 0.5 0.5 0.5 0.5 0.5 0.5 0.5 0.5 0.5 0.5 0.5 0.5 0.5 0.5 0.5 0.5 0.5 0.5 0.5 0.5 0.5 0.5 0.5 0.5 0.5 0.5 0.5 0.5 0.5 0.5 0.5 0.5 0.5 0.5 0.5 0.5 0.5 0.5 0.5 0.5 0.5 0.5 0.5 0.5 0.5 0.5 0.5 0.5 0.5 0.5 0.5 0.5 0.5 0.5 0.5 0.5 0.5 0.5 0.5 0.5 0.5 0.5 0.5 0.5 0.5 0.5 0.5 0.5 0.62801 0.37199000000000004 0.0276759 0.9723241 0.712726 0.28727400000000003 0.295006 0.704994 0.5 0.5 0.5 0.5 0.5 0.5 0.5 0.5 0.5 0.5 0.5 0.5 0.5 0.5 0.5 0.5 0.5 0.5 0.5 0.5 0.508353 0.49164699999999995 0.0217397 0.9782603 0.335331 0.664669 0.482034 0.5179659999999999 0.5 0.5 0.5 0.5 0.5 0.5 0.5 0.5 0.5 0.5 0.5 0.5 0.5 0.5 0.5 0.5 0.5 0.5 0.5 0.5 0.5 0.5 0.5 0.5 0.5 0.5 0.5 0.5 0.5 0.5 0.5 0.5 0.5 0.5 0.5 0.5 0.5 0.5 0.5 0.5 0.5 0.5 0.5 0.5 0.5 0.5 0.5 0.5 0.5 0.5 0.5 0.5 0.5 0.5 0.5 0.5 0.5 0.5 0.5 0.5 0.5 0.5 0.5 0.5 0.5 0.5 0.5 0.5 0.5 0.5 0.5 0.5 0.5 0.5 0.5 0.5 0.5 0.5 0.5 0.5 0.5 0.5 0.5 0.5 0.5 0.5 0.5 0.5 0.5 0.5 0.5 0.5 0.5 0.5 0.5 0.5 0.5 0.5 0.5 0.5 0.5 0.5 0.5 0.5 0.5 0.5 0.5 0.5 0.247396 0.752604 0.580669 0.419331 0.589915 0.41008500000000003 0.425356 0.5746439999999999 0.5 0.5 0.5 0.5 0.5 0.5 0.5 0.5 0.5 0.5 0.5 0.5 0.5 0.5 0.5 0.5 0.589678 0.41032199999999996 0.137051 0.862949 0.847415 0.15258499999999997 0.653435 0.346565 0.5 0.5 0.5 0.5 0.5 0.5 0.5 0.5 0.5 0.5 0.5 0.5 0.5 0.5 0.5 0.5 0.5 0.5 0.5 0.5 0.5 0.5 0.5 0.5 0.895045 0.10495500000000002 0.572835 0.427165 0.916501 0.08349899999999999 0.0186699 0.9813301 0.5 0.5 0.5 0.5 0.5 0.5 0.5 0.5 0.5 0.5 0.5 0.5 0.5 0.5 0.5 0.5 0.840778 0.15922199999999997 0.310193 0.6898070000000001 0.491327 0.5086729999999999 0.0397516 0.9602484 0.5 0.5 0.5 0.5 0.5 0.5 0.5 0.5 0.5 0.5 0.5 0.5 0.5 0.5 0.5 0.5 0.5 0.5 0.5 0.5 0.371839 0.628161 0.323797 0.676203 0.294038 0.705962 0.564399 0.435601 0.492035 0.507965 0.27744 0.72256 0.0932302 0.9067698 0.27971 0.72029 0.5 0.5 0.5 0.5 0.5 0.5 0.5 0.5 0.5 0.5 0.5 0.5 0.5 0.5 0.5 0.5 0.5 0.5 0.5 0.5 0.5 0.5 0.5 0.5 0.5 0.5 0.5 0.5 0.5 0.5 0.5 0.5 0.106389 0.893611 0.757718 0.242282 0.180799 0.8192010000000001 0.400427 0.599573 0.5 0.5 0.5 0.5 0.5 0.5 0.5 0.5 0.5 0.5 0.5 0.5 0.5 0.5 0.5 0.5 0.5 0.5 0.5 0.5 0.5 0.5 0.5 0.5 0.160475 0.839525 0.732926 0.26707400000000003 0.636681 0.36331899999999995 0.53856 0.46143999999999996 0.205405 0.7945949999999999 0.822547 0.17745299999999997 0.151514 0.848486 0.0624075 0.9375925 0.909232 0.09076799999999996 0.243207 0.756793 0.5 0.5 0.5 0.5 0.5 0.5 0.5 0.5 0.5 0.5 0.5 0.5 0.5 0.5 0.5 0.5 0.5 0.5 0.5 0.5 0.5 0.5 0.5 0.5 0.213503 0.786497 0.927391 0.07260900000000003 0.580916 0.419084 0.373978 0.6260220000000001 0.5 0.5 0.5 0.5 0.5 0.5 0.5 0.5 0.5 0.5 0.5 0.5 0.5 0.5 0.5 0.5 0.5 0.5 0.5 0.5 0.5 0.5 0.5 0.5 0.5 0.5 0.5 0.5 0.5 0.5 0.5 0.5 0.5 0.5 0.5 0.5 0.5 0.5 0.5 0.5 0.5 0.5 0.5 0.5 0.5 0.5 0.5 0.5 0.23381 0.76619 0.306265 0.693735 0.322529 0.6774709999999999 0.656812 0.34318800000000005 0.5 0.5 0.5 0.5 0.5 0.5 0.5 0.5 0.698762 0.301238 0.104744 0.895256 0.7841 0.21589999999999998 0.913975 0.08602500000000002 0.5 0.5 0.5 0.5 0.5 0.5 0.5 0.5 0.5 0.5 0.5 0.5 0.5 0.5 0.5 0.5 0.5 0.5 0.5 0.5 0.5 0.5 0.5 0.5 0.5 0.5 0.5 0.5 0.5 0.5 0.5 0.5 0.5 0.5 0.5 0.5 0.54152 0.45848 0.448355 0.5516449999999999 0.167207 0.832793 0.412358 0.587642 0.5 0.5 0.5 0.5 0.5 0.5 0.5 0.5 0.5 0.5 0.5 0.5 0.5 0.5 0.5 0.5 0.805892 0.19410799999999995 0.0608315 0.9391685 0.843831 0.156169 0.231046 0.768954 0.5 0.5 0.5 0.5 0.5 0.5 0.5 0.5 0.5 0.5 0.5 0.5 0.5 0.5 0.5 0.5 0.5 0.5 0.5 0.5 0.5 0.5 0.5 0.5 0.5 0.5 0.5 0.5 0.5 0.5 0.5 0.5 0.5 0.5 0.5 0.5 0.5 0.5 0.5 0.5 0.5 0.5 0.5 0.5 0.868355 0.131645 0.193766 0.806234 0.544075 0.455925 0.713823 0.286177 0.5 0.5 0.5 0.5 0.5 0.5 0.5 0.5 0.867628 0.13237200000000005 0.614258 0.38574200000000003 0.582561 0.417439 0.9791 0.02090000000000003 0.5 0.5 0.5 0.5 0.5 0.5 0.5 0.5 0.871257 0.12874300000000005 0.33928 0.66072 0.284693 0.715307 0.338481 0.661519 0.5 0.5 0.5 0.5 0.5 0.5 0.5 0.5 0.5 0.5 0.5 0.5 0.5 0.5 0.5 0.5 0.5 0.5 0.5 0.5 0.5 0.5 0.5 0.5 0.5 0.5 0.5 0.5 0.5 0.5 0.5 0.5 0.5 0.5 0.5 0.5 0.5 0.5 0.5 0.5 0.5 0.5 0.5 0.5 0.5 0.5 0.5 0.5 0.94292 0.05708000000000002 0.00230012 0.99769988 0.391373 0.608627 0.400951 0.5990489999999999 0.5 0.5 0.5 0.5 0.5 0.5 0.5 0.5 0.255375 0.744625 0.794132 0.20586800000000005 0.5 0.5 0.5 0.5 0.5 0.5 0.5 0.5 0.5 0.5 0.5 0.5 0.5 0.5 0.5 0.5 0.5 0.5 0.5 0.5 0.5 0.5 0.5 0.5 0.5 0.5 0.5 0.5 0.5 0.5 0.5 0.5 0.679252 0.32074800000000003 0.222654 0.777346 0.13371 0.86629 0.410777 0.589223 0.5 0.5 0.5 0.5 0.5 0.5 0.5 0.5 0.5 0.5 0.5 0.5 0.5 0.5 0.5 0.5 0.668605 0.331395 0.757973 0.242027 0.271346 0.728654 0.376999 0.623001 0.5 0.5 0.5 0.5 0.5 0.5 0.5 0.5 0.5 0.5 0.5 0.5 0.5 0.5 0.5 0.5 0.608436 0.391564 0.434327 0.565673 0.023823 0.976177 0.0192126 0.9807874 0.5 0.5 0.5 0.5 0.5 0.5 0.5 0.5 0.5 0.5 0.5 0.5 0.5 0.5 0.5 0.5 0.91555 0.08445000000000003 0.126651 0.8733489999999999 0.5 0.5 0.5 0.5 0.5 0.5 0.5 0.5 0.5 0.5 0.5 0.5 0.5 0.5 0.5 0.5 0.5 0.5 0.5 0.5 0.5 0.5 0.5 0.5 0.463558 0.536442 0.849781 0.150219 0.979178 0.020822000000000007 0.23946 0.76054 0.5 0.5 0.5 0.5 0.5 0.5 0.5 0.5 0.5 0.5 0.5 0.5 0.5 0.5 0.5 0.5 0.602038 0.39796200000000004 0.631194 0.36880599999999997 0.814135 0.18586499999999995 0.167589 0.832411 0.5 0.5 0.5 0.5 0.5 0.5 0.5 0.5 0.5 0.5 0.5 0.5 0.5 0.5 0.5 0.5 0.5 0.5 0.5 0.5 0.5 0.5 0.5 0.5 0.5 0.5 0.5 0.5 0.5 0.5 0.5 0.5 0.5 0.5 0.5 0.5 0.5 0.5 0.5 0.5 0.0220752 0.9779248 0.68569 0.31431 0.47748 0.52252 0.83621 0.16379
-1 2 0
1 -2 0
-2 3 0
2 -3 0
-3 -201 4 0
-3 201 -4 0
3 -202 4 0
3 202 -4 0
-4 -5 0
4 5 0
-5 6 0
5 -6 0
-6 7 0
6 -7 0
-7 -8 0
7 8 0
-8 9 0
8 -9 0
-9 -10 0
9 10 0
-10 11 0
10 -11 0
-11 -12 0
11 12 0
-12 13 0
12 -13 0
-13 -14 0
13 14 0
-1 -15 0
1 15 0
-15 -2 16 0
-15 2 -16 0
15 -2 -16 0
15 2 -16 0
-16 -3 -17 0
-16 3 17 0
16 -3 -17 0
16 3 17 0
-17 -4 -233 18 0
-17 -4 233 -18 0
-17 4 -234 18 0
-17 4 234 -18 0
17 -4 -235 18 0
17 -4 235 -18 0
17 4 -236 18 0
17 4 236 -18 0
-18 -5 19 0
-18 5 -19 0
18 -5 19 0
18 5 19 0
-19 -6 20 0
-19 6 20 0
19 -6 20 0
19 6 -20 0
-20 -7 21 0
-20 7 -21 0
20 -7 21 0
20 7 -21 0
-21 -8 -22 0
-21 8 -22 0
21 -8 -22 0
21 8 22 0
-22 -9 23 0
-22 9 -23 0
22 -9 23 0
22 9 -23 0
-23 -10 -24 0
-23 10 24 0
23 -10 24 0
23 10 24 0
-24 -11 -25 0
-24 11 -25 0
24 -11 -25 0
24 11 25 0
-25 -12 26 0
-25 12 -26 0
25 -12 26 0
25 12 26 0
-26 -13 27 0
-26 13 27 0
26 -13 27 0
26 13 -27 0
-27 -14 28 0
-27 14 -28 0
27 -14 28 0
27 14 -28 0
-15 29 0
15 -29 0
-29 -16 30 0
-29 16 -30 0
29 -16 30 0
29 16 30 0
-30 -17 -31 0
-30 17 -31 0
30 -17 -31 0
30 17 31 0
-31 -18 -32 0
-31 18 32 0
31 -18 32 0
31 18 32 0
-32 -19 -33 0
-32 19 33 0
32 -19 33 0
32 19 33 0
-33 -20 34 0
-33 20 34 0
33 -20 34 0
33 20 -34 0
-34 -21 -299 35 0
-34 -21 299 -35 0
-34 21 -300 35 0
-34 21 300 -35 0
34 -21 -301 35 0
34 -21 301 -35 0
34 21 -302 35 0
34 21 302 -35 0
-35 -22 -36 0
-35 22 -36 0
35 -22 36 0
35 22 -36 0
-36 -23 37 0
-36 23 37 0
36 -23 -37 0
36 23 37 0
-37 -24 -311 38 0
-37 -24 311 -38 0
-37 24 -312 38 0
-37 24 312 -38 0
37 -24 -313 38 0
37 -24 313 -38 0
37 24 -314 38 0
37 24 314 -38 0
-38 -25 39 0
-38 25 39 0
38 -25 39 0
38 25 -39 0
-39 -26 -40 0
-39 26 40 0
39 -26 40 0
39 26 40 0
-40 -27 -41 0
-40 27 41 0
40 -27 41 0
40 27 41 0
-41 -28 -327 42 0
-41 -28 327 -42 0
-41 28 -328 42 0
-41 28 328 -42 0
41 -28 -329 42 0
41 -28 329 -42 0
41 28 -330 42 0
41 28 330 -42 0
-29 -43 0
29 43 0
-43 -30 -333 44 0
-43 -30 333 -44 0
-43 30 -334 44 0
-43 30 334 -44 0
43 -30 -335 44 0
43 -30 335 -44 0
43 30 -336 44 0
43 30 336 -44 0
-44 -31 45 0
-44 31 45 0
44 -31 -45 0
44 31 45 0
-45 -32 -341 46 0
-45 -32 341 -46 0
-45 32 -342 46 0
-45 32 342 -46 0
45 -32 -343 46 0
45 -32 343 -46 0
45 32 -344 46 0
45 32 344 -46 0
-46 -33 -47 0
-46 33 47 0
46 -33 -47 0
46 33 47 0
-47 -34 -349 48 0
-47 -34 349 -48 0
-47 34 -350 48 0
-47 34 350 -48 0
47 -34 -351 48 0
47 -34 351 -48 0
47 34 -352 48 0
47 34 352 -48 0
-48 -35 49 0
-48 35 49 0
48 -35 -49 0
48 35 49 0
-49 -36 -357 50 0
-49 -36 357 -50 0
-49 36 -358 50 0
-49 36 358 -50 0
49 -36 -359 50 0
49 -36 359 -50 0
49 36 -360 50 0
49 36 360 -50 0
-50 -37 -51 0
-50 37 51 0
50 -37 -51 0
50 37 -51 0
-51 -38 -52 0
-51 38 52 0
51 -38 -52 0
51 38 -52 0
-52 -39 -369 53 0
-52 -39 369 -53 0
-52 39 -370 53 0
-52 39 370 -53 0
52 -39 -371 53 0
52 -39 371 -53 0
52 39 -372 53 0
52 39 372 -53 0
-53 -40 -54 0
-53 40 -54 0
53 -40 54 0
53 40 54 0
-54 -41 -55 0
-54 41 -55 0
54 -41 -55 0
54 41 55 0
-55 -42 -56 0
-55 42 -56 0
55 -42 -56 0
55 42 56 0
-43 57 0
43 -57 0
-57 -44 -387 58 0
-57 -44 387 -58 0
-57 44 -388 58 0
-57 44 388 -58 0
57 -44 -389 58 0
57 -44 389 -58 0
57 44 -390 58 0
57 44 390 -58 0
-58 -45 -59 0
-58 45 59 0
58 -45 -59 0
58 45 59 0
-59 -46 60 0
-59 46 -60 0
59 -46 60 0
59 46 -60 0
-60 -47 61 0
-60 47 -61 0
60 -47 -61 0
60 47 -61 0
-61 -48 -62 0
-61 48 62 0
61 -48 62 0
61 48 -62 0
-62 -49 63 0
-62 49 -63 0
62 -49 -63 0
62 49 63 0
-63 -50 64 0
-63 50 -64 0
63 -50 -64 0
63 50 64 0
-64 -51 -65 0
-64 51 65 0
64 -51 -65 0
64 51 65 0
-65 -52 -66 0
-65 52 -66 0
65 -52 66 0
65 52 66 0
-66 -53 67 0
-66 53 -67 0
66 -53 -67 0
66 53 67 0
-67 -54 68 0
-67 54 -68 0
67 -54 68 0
67 54 -68 0
-68 -55 -431 69 0
-68 -55 431 -69 0
-68 55 -432 69 0
-68 55 432 -69 0
68 -55 -433 69 0
68 -55 433 -69 0
68 55 -434 69 0
68 55 434 -69 0
-69 -56 70 0
-69 56 -70 0
69 -56 -70 0
69 56 70 0
-57 -439 71 0
-57 439 -71 0
57 -440 71 0
57 440 -71 0
-71 -58 72 0
-71 58 -72 0
71 -58 72 0
71 58 72 0
-72 -59 -73 0
-72 59 -73 0
72 -59 73 0
72 59 73 0
-73 -60 74 0
-73 60 74 0
73 -60 -74 0
73 60 -74 0
-74 -61 -75 0
-74 61 75 0
74 -61 75 0
74 61 -75 0
-75 -62 -76 0
-75 62 76 0
75 -62 -76 0
75 62 76 0
-76 -63 -77 0
-76 63 -77 0
76 -63 -77 0
76 63 77 0
-77 -64 -78 0
-77 64 -78 0
77 -64 -78 0
77 64 78 0
-78 -65 79 0
-78 65 79 0
78 -65 79 0
78 65 -79 0
-79 -66 80 0
-79 66 80 0
79 -66 -80 0
79 66 -80 0
-80 -67 81 0
-80 67 -81 0
80 -67 81 0
80 67 -81 0
-81 -68 -481 82 0
-81 -68 481 -82 0
-81 68 -482 82 0
-81 68 482 -82 0
81 -68 -483 82 0
81 -68 483 -82 0
81 68 -484 82 0
81 68 484 -82 0
-82 -69 -83 0
-82 69 83 0
82 -69 83 0
82 69 -83 0
-83 -70 -84 0
-83 70 84 0
83 -70 84 0
83 70 84 0
-71 -85 0
71 85 0
-85 -72 -495 86 0
-85 -72 495 -86 0
-85 72 -496 86 0
-85 72 496 -86 0
85 -72 -497 86 0
85 -72 497 -86 0
85 72 -498 86 0
85 72 498 -86 0
-86 -73 87 0
-86 73 87 0
86 -73 -87 0
86 73 -87 0
-87 -74 88 0
-87 74 -88 0
87 -74 -88 0
87 74 88 0
-88 -75 89 0
-88 75 89 0
88 -75 -89 0
88 75 -89 0
-89 -76 90 0
-89 76 -90 0
89 -76 90 0
89 76 -90 0
-90 -77 -91 0
-90 77 91 0
90 -77 -91 0
90 77 -91 0
-91 -78 -92 0
-91 78 -92 0
91 -78 -92 0
91 78 92 0
-92 -79 -93 0
-92 79 -93 0
92 -79 93 0
92 79 -93 0
-93 -80 94 0
-93 80 94 0
93 -80 -94 0
93 80 94 0
-94 -81 -95 0
-94 81 -95 0
94 -81 95 0
94 81 -95 0
-95 -82 96 0
-95 82 96 0
95 -82 -96 0
95 82 96 0
-96 -83 -97 0
-96 83 -97 0
96 -83 97 0
96 83 -97 0
-97 -84 98 0
-97 84 98 0
97 -84 -98 0
97 84 98 0
-85 -99 0
85 99 0
-99 -86 100 0
-99 86 100 0
99 -86 100 0
99 86 -100 0
-100 -87 -553 101 0
-100 -87 553 -101 0
-100 87 -554 101 0
-100 87 554 -101 0
100 -87 -555 101 0
100 -87 555 -101 0
100 87 -556 101 0
100 87 556 -101 0
-101 -88 102 0
-101 88 -102 0
101 -88 102 0
101 88 -102 0
-102 -89 -103 0
-102 89 -103 0
102 -89 103 0
102 89 -103 0
-103 -90 -565 104 0
-103 -90 565 -104 0
-103 90 -566 104 0
-103 90 566 -104 0
103 -90 -567 104 0
103 -90 567 -104 0
103 90 -568 104 0
103 90 568 -104 0
-104 -91 105 0
-104 91 -105 0
104 -91 105 0
104 91 -105 0
-105 -92 106 0
-105 92 -106 0
105 -92 106 0
105 92 106 0
-106 -93 107 0
-106 93 107 0
106 -93 -107 0
106 93 -107 0
-107 -94 -581 108 0
-107 -94 581 -108 0
-107 94 -582 108 0
-107 94 582 -108 0
107 -94 -583 108 0
107 -94 583 -108 0
107 94 -584 108 0
107 94 584 -108 0
-108 -95 109 0
-108 95 109 0
108 -95 109 0
108 95 -109 0
-109 -96 110 0
-109 96 -110 0
109 -96 -110 0
109 96 -110 0
-110 -97 -593 111 0
-110 -97 593 -111 0
-110 97 -594 111 0
-110 97 594 -111 0
110 -97 -595 111 0
110 -97 595 -111 0
110 97 -596 111 0
110 97 596 -111 0
-111 -98 112 0
-111 98 112 0
111 -98 -112 0
111 98 112 0
-99 113 0
99 -113 0
-113 -100 -114 0
-113 100 -114 0
113 -100 114 0
113 100 114 0
-114 -101 -607 115 0
-114 -101 607 -115 0
-114 101 -608 115 0
-114 101 608 -115 0
114 -101 -609 115 0
114 -101 609 -115 0
114 101 -610 115 0
114 101 610 -115 0
-115 -102 -611 116 0
-115 -102 611 -116 0
-115 102 -612 116 0
-115 102 612 -116 0
115 -102 -613 116 0
115 -102 613 -116 0
115 102 -614 116 0
115 102 614 -116 0
-116 -103 -117 0
-116 103 117 0
116 -103 -117 0
116 103 117 0
-117 -104 -118 0
-117 104 118 0
117 -104 -118 0
117 104 118 0
-118 -105 119 0
-118 105 -119 0
118 -105 -119 0
118 105 119 0
-119 -106 120 0
-119 106 -120 0
119 -106 -120 0
119 106 120 0
-120 -107 -631 121 0
-120 -107 631 -121 0
-120 107 -632 121 0
-120 107 632 -121 0
120 -107 -633 121 0
120 -107 633 -121 0
120 107 -634 121 0
120 107 634 -121 0
-121 -108 -122 0
-121 108 -122 0
121 -108 -122 0
121 108 122 0
-122 -109 123 0
-122 109 -123 0
122 -109 123 0
122 109 -123 0
-123 -110 -124 0
-123 110 124 0
123 -110 124 0
123 110 124 0
-124 -111 -647 125 0
-124 -111 647 -125 0
-124 111 -648 125 0
-124 111 648 -125 0
124 -111 -649 125 0
124 -111 649 -125 0
124 111 -650 125 0
124 111 650 -125 0
-125 -112 -651 126 0
-125 -112 651 -126 0
-125 112 -652 126 0
-125 112 652 -126 0
125 -112 -653 126 0
125 -112 653 -126 0
125 112 -654 126 0
125 112 654 -126 0
-113 -655 127 0
-113 655 -127 0
113 -656 127 0
113 656 -127 0
-127 -114 128 0
-127 114 128 0
127 -114 -128 0
127 114 128 0
-128 -115 129 0
-128 115 -129 0
128 -115 -129 0
128 115 129 0
-129 -116 130 0
-129 116 -130 0
129 -116 130 0
129 116 -130 0
-130 -117 -669 131 0
-130 -117 669 -131 0
-130 117 -670 131 0
-130 117 670 -131 0
130 -117 -671 131 0
130 -117 671 -131 0
130 117 -672 131 0
130 117 672 -131 0
-131 -118 132 0
-131 118 -132 0
131 -118 -132 0
131 118 -132 0
-132 -119 -133 0
-132 119 133 0
132 -119 133 0
132 119 -133 0
-133 -120 134 0
-133 120 134 0
133 -120 -134 0
133 120 134 0
-134 -121 -135 0
-134 121 135 0
134 -121 135 0
134 121 135 0
-135 -122 -136 0
-135 122 -136 0
135 -122 -136 0
135 122 136 0
-136 -123 137 0
-136 123 137 0
136 -123 137 0
136 123 -137 0
-137 -124 -697 138 0
-137 -124 697 -138 0
-137 124 -698 138 0
-137 124 698 -138 0
137 -124 -699 138 0
137 -124 699 -138 0
137 124 -700 138 0
137 124 700 -138 0
-138 -125 -139 0
-138 125 -139 0
138 -125 -139 0
138 125 139 0
-139 -126 -705 140 0
-139 -126 705 -140 0
-139 126 -706 140 0
-139 126 706 -140 0
139 -126 -707 140 0
139 -126 707 -140 0
139 126 -708 140 0
139 126 708 -140 0
-127 141 0
127 -141 0
-141 -128 -142 0
-141 128 -142 0
141 -128 142 0
141 128 142 0
-142 -129 143 0
-142 129 143 0
142 -129 -143 0
142 129 143 0
-143 -130 144 0
-143 130 -144 0
143 -130 144 0
143 130 144 0
-144 -131 145 0
-144 131 145 0
144 -131 -145 0
144 131 -145 0
-145 -132 -727 146 0
-145 -132 727 -146 0
-145 132 -728 146 0
-145 132 728 -146 0
145 -132 -729 146 0
145 -132 729 -146 0
145 132 -730 146 0
145 132 730 -146 0
-146 -133 147 0
-146 133 147 0
146 -133 147 0
146 133 -147 0
-147 -134 148 0
-147 134 -148 0
147 -134 -148 0
147 134 148 0
-148 -135 -739 149 0
-148 -135 739 -149 0
-148 135 -740 149 0
-148 135 740 -149 0
148 -135 -741 149 0
148 -135 741 -149 0
148 135 -742 149 0
148 135 742 -149 0
-149 -136 150 0
-149 136 150 0
149 -136 150 0
149 136 -150 0
-150 -137 151 0
-150 137 -151 0
150 -137 -151 0
150 137 -151 0
-151 -138 -152 0
-151 138 -152 0
151 -138 152 0
151 138 152 0
-152 -139 -153 0
-152 139 153 0
152 -139 -153 0
152 139 -153 0
-153 -140 154 0
-153 140 154 0
153 -140 154 0
153 140 -154 0
-141 -155 0
141 155 0
-155 -142 -765 156 0
-155 -142 765 -156 0
-155 142 -766 156 0
-155 142 766 -156 0
155 -142 -767 156 0
155 -142 767 -156 0
155 142 -768 156 0
155 142 768 -156 0
-156 -143 -157 0
-156 143 -157 0
156 -143 157 0
156 143 157 0
-157 -144 -773 158 0
-157 -144 773 -158 0
-157 144 -774 158 0
-157 144 774 -158 0
157 -144 -775 158 0
157 -144 775 -158 0
157 144 -776 158 0
157 144 776 -158 0
-158 -145 159 0
-158 145 -159 0
158 -145 159 0
158 145 -159 0
-159 -146 -781 160 0
-159 -146 781 -160 0
-159 146 -782 160 0
-159 146 782 -160 0
159 -146 -783 160 0
159 -146 783 -160 0
159 146 -784 160 0
159 146 784 -160 0
-160 -147 161 0
-160 147 161 0
160 -147 -161 0
160 147 -161 0
-161 -148 162 0
-161 148 -162 0
161 -148 -162 0
161 148 162 0
-162 -149 163 0
-162 149 163 0
162 -149 -163 0
162 149 -163 0
-163 -150 -164 0
-163 150 164 0
163 -150 -164 0
163 150 -164 0
-164 -151 -165 0
-164 151 165 0
164 -151 -165 0
164 151 -165 0
-165 -152 -166 0
-165 152 166 0
165 -152 -166 0
165 152 166 0
-166 -153 -809 167 0
-166 -153 809 -167 0
-166 153 -810 167 0
-166 153 810 -167 0
166 -153 -811 167 0
166 -153 811 -167 0
166 153 -812 167 0
166 153 812 -167 0
-167 -154 168 0
-167 154 -168 0
167 -154 -168 0
167 154 168 0
-155 -817 169 0
-155 817 -169 0
155 -818 169 0
155 818 -169 0
-169 -156 -170 0
-169 156 170 0
169 -156 170 0
169 156 170 0
-170 -157 171 0
-170 157 171 0
170 -157 -171 0
170 157 171 0
-171 -158 -172 0
-171 158 -172 0
171 -158 172 0
171 158 -172 0
-172 -159 -173 0
-172 159 173 0
172 -159 173 0
172 159 -173 0
-173 -160 -835 174 0
-173 -160 835 -174 0
-173 160 -836 174 0
-173 160 836 -174 0
173 -160 -837 174 0
173 -160 837 -174 0
173 160 -838 174 0
173 160 838 -174 0
-174 -161 175 0
-174 161 175 0
174 -161 175 0
174 161 -175 0
-175 -162 176 0
-175 162 -176 0
175 -162 -176 0
175 162 -176 0
-176 -163 -847 177 0
-176 -163 847 -177 0
-176 163 -848 177 0
-176 163 848 -177 0
176 -163 -849 177 0
176 -163 849 -177 0
176 163 -850 177 0
176 163 850 -177 0
-177 -164 -178 0
-177 164 -178 0
177 -164 178 0
177 164 -178 0
-178 -165 179 0
-178 165 -179 0
178 -165 -179 0
178 165 179 0
-179 -166 -859 180 0
-179 -166 859 -180 0
-179 166 -860 180 0
-179 166 860 -180 0
179 -166 -861 180 0
179 -166 861 -180 0
179 166 -862 180 0
179 166 862 -180 0
-180 -167 -181 0
-180 167 -181 0
180 -167 -181 0
180 167 181 0
-181 -168 -182 0
-181 168 -182 0
181 -168 -182 0
181 168 182 0
-169 -871 183 0
-169 871 -183 0
169 -872 183 0
169 872 -183 0
-183 -170 184 0
-183 170 -184 0
183 -170 184 0
183 170 184 0
-184 -171 -185 0
-184 171 -185 0
184 -171 -185 0
184 171 185 0
-185 -172 186 0
-185 172 -186 0
185 -172 -186 0
185 172 186 0
-186 -173 -885 187 0
-186 -173 885 -187 0
-186 173 -886 187 0
-186 173 886 -187 0
186 -173 -887 187 0
186 -173 887 -187 0
186 173 -888 187 0
186 173 888 -187 0
-187 -174 188 0
-187 174 -188 0
187 -174 188 0
187 174 188 0
-188 -175 -189 0
-188 175 189 0
188 -175 -189 0
188 175 189 0
-189 -176 -897 190 0
-189 -176 897 -190 0
-189 176 -898 190 0
-189 176 898 -190 0
189 -176 -899 190 0
189 -176 899 -190 0
189 176 -900 190 0
189 176 900 -190 0
-190 -177 -191 0
-190 177 191 0
190 -177 191 0
190 177 -191 0
-191 -178 192 0
-191 178 192 0
191 -178 -192 0
191 178 192 0
-192 -179 193 0
-192 179 193 0
192 -179 -193 0
192 179 193 0
-193 -180 -194 0
-193 180 -194 0
193 -180 -194 0
193 180 194 0
-194 -181 195 0
-194 181 195 0
194 -181 -195 0
194 181 195 0
-195 -182 -921 196 0
-195 -182 921 -196 0
-195 182 -922 196 0
-195 182 922 -196 0
195 -182 -923 196 0
195 -182 923 -196 0
195 182 -924 196 0
195 182 924 -196 0
196 0
