data/benchmarks/bayes/75-14-2-q.gr
p tw 924 997
87 553
167 811
67 68
177 190
99 100
26 39
136 149
187 887
59 73
159 160
8 9
118 131
40 41
77 90
100 101
97 593
132 133
101 554
92 106
107 634
192 193
21 302
41 42
111 595
151 164
73 74
110 123
190 897
33 47
133 134
173 835
55 434
125 139
51 64
58 387
74 75
106 107
143 156
66 80
174 836
115 610
159 784
166 167
15 16
47 48
125 651
158 172
43 334
179 860
7 21
107 108
32 343
99 113
48 49
180 861
80 81
40 54
28 327
81 482
146 728
124 700
132 146
90 567
144 776
117 670
4 235
57 390
81 82
25 38
73 87
50 360
173 174
156 768
22 23
183 871
165 179
166 809
14 28
114 115
182 924
155 818
68 484
176 850
106 120
55 56
108 584
47 61
53 370
147 148
187 886
139 153
80 94
101 553
145 727
107 633
21 301
111 594
172 186
72 495
181 182
55 433
173 187
84 97
149 742
176 189
159 783
196 921
24 311
125 650
158 171
43 333
44 387
117 130
179 859
32 342
107 583
160 836
21 22
147 161
58 71
46 344
186 885
180 860
113 114
150 163
189 899
49 358
124 699
132 145
54 55
42 328
91 104
117 669
4 234
144 775
30 335
146 147
126 708
190 900
50 359
104 568
32 45
165 178
87 88
124 137
68 483
176 849
148 741
106 119
18 235
131 670
179 180
65 78
114 608
88 89
120 121
124 649
53 369
157 170
6 19
180 181
29 30
139 152
61 62
169 818
98 111
21 35
121 122
4 202
153 810
120 633
153 154
80 93
2 3
113 127
39 52
62 63
172 185
111 593
94 95
155 767
131 144
54 68
121 634
13 27
3 4
55 432
35 36
146 160
72 85
105 119
95 96
102 611
69 434
127 128
164 177
87 101
52 372
35 301
187 188
46 60
159 782
36 37
68 69
45 342
179 193
28 42
34 351
128 129
160 161
107 582
120 134
160 835
79 93
69 70
46 343
101 102
137 699
61 75
161 162
189 898
20 34
10 11
49 357
153 167
145 730
146 784
2 16
42 327
102 103
30 334
138 700
94 108
72 498
126 707
104 567
53 67
158 776
43 44
194 195
35 49
135 136
68 482
127 141
148 740
38 51
18 234
86 100
131 669
76 77
24 314
114 607
196 924
82 484
44 390
68 82
124 648
27 41
160 174
186 888
169 817
100 556
153 809
4 201
101 115
120 632
12 25
60 74
163 850
101 609
155 766
1 15
121 633
110 596
13 26
103 566
86 495
105 118
69 433
112 651
52 371
9 10
35 300
46 59
132 727
45 341
138 151
34 350
195 923
38 311
19 32
107 581
79 92
134 135
137 698
171 184
20 33
48 351
146 783
75 76
112 125
85 498
30 333
41 330
126 706
16 17
158 775
53 66
94 583
44 335
173 885
108 109
140 708
145 158
102 614
160 784
37 314
148 739
49 50
86 99
109 110
82 483
178 191
124 647
27 40
50 51
82 83
119 132
42 56
100 555
142 143
120 631
23 24
134 148
60 73
163 849
135 741
130 672
83 84
115 116
101 608
152 165
68 431
75 89
175 176
34 48
57 440
24 25
110 595
111 649
93 106
16 30
103 565
116 117
17 233
157 774
69 432
177 850
108 122
166 859
67 81
57 58
116 611
167 168
89 90
176 900
126 139
49 63
159 173
149 150
142 767
8 22
195 922
30 31
100 114
47 349
90 91
36 358
126 651
82 96
137 697
41 55
31 32
141 142
48 350
23 37
133 147
123 124
85 497
139 706
115 129
41 329
74 88
64 65
94 582
174 175
115 614
44 334
34 299
56 70
86 498
140 707
156 157
15 29
167 810
5 6
166 180
160 783
37 313
59 72
107 121
97 98
132 730
167 181
82 482
89 103
189 190
48 62
148 149
92 105
30 44
140 154
33 46
81 95
135 740
141 155
125 138
101 607
22 36
122 123
34 47
111 648
66 79
174 835
115 609
114 128
157 773
39 372
174 188
87 556
7 20
177 849
55 69
67 80
176 899
159 172
142 766
8 21
40 53
81 481
146 727
97 596
63 64
100 113
148 162
36 357
90 566
57 389
4 5
41 54
73 86
173 838
48 349
156 767
133 146
181 195
85 496
139 705
58 390
14 27
182 923
155 817
37 38
41 328
74 87
122 136
115 613
44 333
166 179
140 706
17 236
108 583
125 654
167 809
47 60
160 782
37 312
187 885
107 120
130 131
167 180
11 12
48 61
28 330
107 632
47 352
140 153
21 300
163 164
126 654
44 45
169 872
81 94
173 186
22 35
166 812
149 741
155 156
115 608
114 127
137 138
39 371
174 187
71 440
96 97
125 649
18 19
177 848
55 68
32 341
88 102
188 189
147 160
176 898
180 194
170 171
180 859
29 43
129 130
97 595
121 135
124 698
111 112
101 556
148 161
90 565
144 774
4 233
57 388
62 76
162 163
190 899
50 358
173 837
156 766
154 168
144 145
3 17
181 194
103 104
182 922
95 109
85 86
176 848
122 135
195 196
115 612
155 169
177 178
36 50
125 653
108 582
43 336
136 137
179 862
96 110
128 142
118 119
77 78
21 34
69 83
169 170
28 329
81 484
129 143
161 175
107 631
151 152
10 24
21 299
110 111
117 672
54 67
102 116
55 431
51 52
162 176
146 159
43 57
143 144
113 656
149 740
166 811
103 117
87 100
135 149
159 781
179 192
125 648
28 41
76 90
88 101
53 372
136 150
120 133
168 182
46 342
180 193
77 91
61 74
189 897
121 134
124 697
169 183
101 555
7 8
145 729
153 166
2 15
144 773
111 596
25 26
138 699
62 75
110 124
94 107
72 497
190 898
50 357
104 566
173 836
154 167
3 16
51 65
35 48
95 108
17 18
68 481
143 157
176 847
18 233
196 923
9 23
24 313
36 49
179 861
43 335
44 389
68 81
128 141
160 173
160 838
186 887
69 82
101 114
49 360
161 174
10 23
155 765
42 330
117 671
102 115
121 632
183 872
113 655
176 177
52 370
35 299
135 148
131 672
17 31
117 118
114 610
34 349
76 89
109 123
53 371
58 59
168 181
127 656
46 341
191 192
50 64
150 151
153 812
142 156
91 92
145 728
146 782
83 97
138 698
183 184
32 33
72 496
104 565
126 705
158 774
175 189
165 166
24 38
124 125
84 98
102 613
116 130
112 654
65 66
176 190
196 922
9 22
24 312
57 71
45 344
157 158
44 388
6 7
117 131
38 314
149 163
139 140
107 584
160 837
186 886
58 72
42 55
100 554
90 104
190 191
39 40
150 164
134 147
189 900
163 848
49 359
172 173
130 671
31 45
182 196
131 132
42 329
91 105
75 88
123 137
30 336
121 631
57 439
110 594
72 73
32 46
16 29
64 78
173 888
164 165
69 431
124 138
108 121
156 170
52 369
5 19
148 742
131 671
18 236
17 30
65 79
49 62
114 609
97 111
195 921
109 122
124 650
157 171
6 20
127 655
50 63
98 112
82 95
153 811
120 634
142 155
39 53
23 36
146 781
83 96
138 697
131 145
68 434
115 128
155 768
158 773
94 581
175 188
24 37
72 86
56 69
86 497
103 568
102 612
116 129
38 39
164 178
112 653
166 862
35 302
116 614
132 729
45 343
82 481
89 102
34 352
38 313
149 162
71 72
30 43
63 77
100 553
90 103
12 13
137 700
4 18
163 847
3 202
104 105
31 44
130 670
135 739
182 195
13 14
123 136
45 46
110 593
111 647
105 106
37 51
34 302
64 77
173 887
87 555
46 47
156 169
78 79
5 18
38 52
138 139
70 84
97 110
142 765
19 20
130 144
79 80
11 25
71 85
171 172
20 21
52 53
163 177
12 26
44 58
85 495
104 118
58 389
101 610
68 433
53 54
41 327
174 838
45 59
145 146
103 567
86 496
140 705
17 235
26 27
137 151
157 776
160 781
37 311
86 87
18 32
112 652
166 861
116 613
78 92
132 728
178 179
27 28
138 152
195 924
170 184
38 312
146 730
19 33
119 120
47 351
63 76
111 125
36 360
126 653
60 61
169 871
171 185
4 17
3 201
52 66
130 669
48 352
152 153
1 2
112 126
139 708
144 158
93 94
115 607
94 584
37 50
85 99
44 336
34 301
39 370
71 439
185 186
87 554
145 159
167 812
177 847
173 886
177 191
26 40
187 888
176 897
70 83
186 187
118 132
130 143
178 192
97 594
11 24
119 133
57 387
151 165
163 176
44 57
156 765
135 742
104 117
58 388
152 166
182 921
68 432
111 650
174 837
45 58
115 611
93 107
193 194
157 775
17 234
108 581
125 652
137 150
59 60
96 109
32 344
18 31
166 860
116 612
78 91
126 140
180 862
142 768
170 183
92 93
28 328
81 483
129 142
146 729
47 350
184 185
111 124
36 359
33 34
90 568
4 236
126 652
25 39
125 126
52 65
162 175
34 35
139 707
144 157
66 67
149 739
103 116
166 810
158 159
39 369
34 300
125 647
